43
charge: 0; multiplicity: 1; energy: -717.35865700; smiles: CCCCCCNC(=O)OCCCCCC; generated_by: Rowan; timestamp: 2026-02-14 23:38:22; name: Backward String Step 1;
C     1.45766604  -6.38611114   8.27016023
C     1.43034320  -6.34996239   9.78972577
C     2.26479185  -7.46307872  10.42423961
C     2.24219671  -7.42992895  11.95182491
C     3.07550082  -8.54168879  12.58680234
C     3.05080559  -8.50595600  14.10809871
N     3.84113864  -9.55554008  14.71747040
C     3.93400155  -9.67364176  16.09262253
O     3.35259466  -8.88378741  16.82068248
H     2.47544148  -6.27777850   7.89081835
H     1.07244420  -7.33455864   7.89141977
H     0.85655408  -5.58788792   7.82888073
H     0.39593051  -6.42203730  10.15094087
H     1.78940075  -5.37727779  10.15115844
H     1.90713176  -8.43806838  10.07173857
H     3.30037225  -7.39479353  10.06972065
H     1.20676469  -7.49822096  12.30660167
H     2.60015222  -6.45516039  12.30447243
H     4.11245059  -8.47448457  12.23759267
H     2.71849506  -9.51817809  12.23932129
H     3.42364227  -7.54522223  14.47944122
H     2.02501404  -8.59547296  14.48178316
C     7.23919267 -14.08160448  22.78461053
C     6.39979556 -12.95555622  22.20284407
C     6.39214652 -12.95152855  20.67396317
C     5.54782717 -11.82340652  20.08308771
C     5.54052088 -11.82030150  18.55646589
C     4.69887559 -10.69654649  17.96875331
O     4.69949629 -10.70557234  16.56104406
H     7.23878842 -14.07295072  23.87691243
H     8.27763910 -14.00926678  22.45629673
H     6.86783077 -15.05686702  22.46451468
H     6.76475352 -11.98567962  22.56580091
H     5.36736466 -13.02519662  22.57002373
H     7.42060027 -12.87583305  20.30074610
H     6.02600545 -13.91721326  20.30502461
H     5.91370775 -10.85729221  20.45100708
H     4.51910211 -11.89888043  20.45542429
H     5.17067383 -12.78033445  18.17961543
H     6.56442040 -11.73876328  18.17509009
H     5.06699052  -9.71445968  18.29150137
H     3.65440727 -10.76925199  18.29729409
H     4.30749318 -10.22189693  14.10203112
