43
charge: 0; multiplicity: 1; energy: -717.30563500; smiles: CCCCCCN=C=O.CCCCCCO; generated_by: Rowan; timestamp: 2026-02-14 23:37:20; name: Forward String Step 1;
C    11.07634550   1.45861880   4.71015046
C    11.59095431   0.92626816   3.38295690
C    12.85199164   0.06921699   3.51686379
C    12.67363223  -1.18815914   4.37580644
C    11.57206388  -2.13454700   3.89637128
C    11.79553340  -2.64417248   2.47154228
N    13.05717852  -3.17058199   2.27005657
C    14.02663852  -2.46326798   1.82089338
O    14.84326306  -1.74255924   1.44012208
H    11.83633490   2.05524314   5.21835929
H    10.19377541   2.08891142   4.58323581
H    10.79796771   0.64745045   5.38411348
H    11.79274515   1.76657901   2.70348531
H    10.80376630   0.34442447   2.88578081
H    13.20839352  -0.22127566   2.51996853
H    13.66111186   0.68413101   3.93316344
H    12.48561511  -0.89596144   5.41628726
H    13.62113397  -1.74228233   4.40320138
H    10.59292750  -1.64330743   3.96666315
H    11.51336447  -2.99660670   4.57361735
H    11.06142100  -3.41825854   2.21329007
H    11.64554034  -1.83349312   1.74854202
C     9.39572729   2.31531635   0.82770493
C    10.37005987   2.11838341  -0.32497626
C     9.77574136   1.32690162  -1.50871344
C    10.02835054  -0.18420063  -1.45690824
C     9.45186413  -0.88094482  -0.22738008
C     9.59930991  -2.39505862  -0.27533277
O     9.12658922  -3.00993366   0.91032465
H     8.49526219   2.83478528   0.49484931
H     9.83097101   2.90994537   1.63397703
H     9.07363261   1.36781326   1.25950311
H    11.28295237   1.61730381   0.02300051
H    10.71045215   3.10463499  -0.67243602
H     8.69685920   1.51799801  -1.56185375
H    10.17782805   1.72050844  -2.45338838
H    11.10754147  -0.37602968  -1.50460777
H     9.61735303  -0.65920019  -2.35744394
H     8.39167029  -0.62737020  -0.11051641
H     9.94052705  -0.50864283   0.67896131
H    10.65176476  -2.67252707  -0.41821980
H     9.04821793  -2.80002209  -1.13336640
H     9.12803038  -3.99520356   0.81774523
