18
optimized; geo_error=7.3757; pairwise=-4.0582; objective=-3.3207
 C     -1.25211855     -1.46933720     -2.41500286
 C     -0.65716923     -1.36011117     -1.03000738
 N      0.57254186     -0.56566972     -1.13752152
 C      1.27371076     -0.36121316      0.09779753
 C      2.54005565      0.43903066      0.08095124
 O      0.85799321     -0.83272300      1.19245214
 O     -1.15712197      1.49228729      1.56071134
 H     -0.58321921     -2.13699420     -3.01973029
 H     -1.31388549     -0.45660079     -2.83064342
 H     -2.23892831     -1.97183180     -2.30905002
 H     -0.48922725     -2.37156314     -0.65144689
 H     -1.42040177     -0.77887380     -0.43541738
 H      0.90880576     -0.17991958     -2.04582038
 H      2.54015246      1.04848739      0.99590569
 H      2.55940619      1.10133066     -0.82891553
 H      3.42646813     -0.22013150     -0.00050589
 H     -1.54222060      1.47256626      2.47207189
 H     -0.58343339      0.71624854      1.38560990
