18
random_median; geo_error=449.9996; pairwise=16.9841; objective=61.9841
 C      3.46556266      1.82495450     -2.09422585
 C      3.95595000      1.74416420     -0.66695549
 N      5.39407912      1.45271255     -0.70850607
 C      6.02856738      1.34067183      0.57380629
 C      7.49619693      1.04454824      0.62555233
 O      5.39090699      1.48332575      1.65382963
 O     -2.88173177     -0.71039388      2.25650478
 H      3.49134455      0.78756283     -2.52088880
 H      4.12706510      2.51278193     -2.63414734
 H      2.40486425      2.15830105     -2.05790395
 H      3.37226193      0.97838785     -0.14980709
 H      3.80238162      2.78253483     -0.25210464
 H      5.91312107      1.33635149     -1.60513250
 H      7.90919597      1.64047452      1.45191957
 H      7.97841817      1.34014552     -0.34756545
 H      7.67930581     -0.04171297      0.74115862
 H     -2.38187673     -0.50413288      1.42772902
 H     -2.28525826     -0.95075443      2.99708657
