18
optimized; geo_error=7.3757; pairwise=-4.0582; objective=-3.3207
 C     -1.27579199     -0.51085012     -1.85485459
 C     -0.70353260     -1.87979232     -1.63016077
 N      0.70480509     -1.95144357     -1.85222831
 C      0.84976791      0.38982298      0.94071396
 C      1.99663005      0.96068700      0.18680711
 O      0.93598450     -0.78280477      1.39201721
 O     -0.32993128      1.11667246      1.16707471
 H      1.94145364      2.07341966      0.14007680
 H      2.96066189      0.71172588      0.66674660
 H      2.04645822      0.55477401     -0.82542853
 H     -0.90155211      0.94592041      1.98663605
 H     -0.45601250      0.23143284     -1.98074249
 H     -1.91093874     -0.18041717     -0.99554823
 H     -1.96315918     -0.47570004     -2.73824376
 H     -1.19038552     -2.64388738     -2.25376030
 H     -0.89826053     -2.16987916     -0.56764884
 H      1.00077142     -2.12015675     -2.82403070
 H      1.27797116     -1.28842602     -1.31135406
