18
random_best; geo_error=139.4750; pairwise=-0.4494; objective=13.4981
 C      4.03020264     -4.30127788     -3.00977597
 C      3.01229778     -5.34899483     -3.35347605
 N      3.05860491     -6.49015638     -2.49704804
 C     -1.84439186     -4.68750583     -2.81427395
 C     -2.84957173     -3.72050059     -2.30039819
 O     -1.46484005     -5.63017072     -2.07030682
 O     -1.30243938     -4.58456146     -4.10537019
 H     -3.34159666     -3.16261582     -3.13110764
 H     -3.65495803     -4.23202554     -1.74238737
 H     -2.39759780     -3.01279191     -1.60273267
 H     -0.98573524     -5.40605850     -4.60779286
 H      4.51188145     -4.53987791     -2.03513464
 H      3.56873063     -3.28582538     -2.92668235
 H      4.81055044     -4.18775997     -3.80492163
 H      3.10293890     -5.69451039     -4.39373879
 H      1.99559781     -4.89205991     -3.26110398
 H      3.72757842     -7.22684736     -2.76204038
 H      2.97033484     -6.29779810     -1.48914762
