18
random_median; geo_error=449.9996; pairwise=16.9841; objective=61.9841
 C      0.51880379     -5.79877491      1.61207177
 C     -0.08116643     -5.69529890      2.98367643
 N      0.85236287     -5.28827404      3.98403475
 C     -0.70805466     -2.43736565      1.75158570
 C     -0.84838021     -2.65575582      3.21520057
 O      0.29058473     -1.80304648      1.31970339
 O     -1.65468097     -2.91620933      0.83188635
 H     -1.55542244     -3.48874487      3.43796197
 H      0.11751712     -2.92844371      3.67819582
 H     -1.18297947     -1.74781297      3.72072240
 H     -1.38845840     -3.15933300     -0.11553323
 H      1.54321294     -5.36352943      1.60789805
 H     -0.09093173     -5.25228644      0.85011528
 H      0.54961388     -6.85406718      1.23858204
 H     -0.54611540     -6.63759133      3.30871614
 H     -0.90089386     -4.93508823      2.95009640
 H      1.40759823     -6.04015241      4.41629937
 H      1.34889163     -4.40483551      3.80058963
