18
random_best; geo_error=139.4750; pairwise=-0.4494; objective=13.4981
 C      2.66066193     -6.62389957     -5.93708249
 C      2.53153879     -6.47104469     -4.43906043
 N      1.22523289     -5.85904843     -4.16719399
 C      0.93437368     -5.63919336     -2.77920330
 C     -0.37808921     -5.01837958     -2.40996795
 O      1.74660581     -5.95140768     -1.86475675
 O      3.44848570     -0.87176332      3.04794370
 H      2.77741387     -5.59704573     -6.37392073
 H      1.75694484     -7.12880713     -6.29842865
 H      3.59845543     -7.19066727     -6.12901493
 H      3.37415973     -5.87195952     -4.08461076
 H      2.53308281     -7.52761626     -4.04213201
 H      0.56025480     -5.60421693     -4.92860612
 H     -0.72147102     -5.52613294     -1.49735926
 H     -1.11891766     -5.17093234     -3.24349909
 H     -0.27877813     -3.92235482     -2.28457213
 H      3.53742962      0.10673101      3.16586629
 H      2.54415656     -1.12914108      2.76872921
