16
random_best; geo_error=99.6140; pairwise=-0.4108; objective=9.5506
 C     -4.06495723      0.89067508     -0.06898101
 C     -3.07338371      0.04420637     -0.37942317
 C      1.05330535     -0.16940655      3.42750466
 C      0.98389888      0.29324727      2.17898053
 C      1.00725930      1.73238777      1.94404032
 C      0.94030469      2.20730851      0.72796995
 H     -3.88143088      1.96304939     -0.09934868
 H     -5.03089797      0.53562415      0.20743840
 H     -3.27668697     -1.02838613     -0.34324016
 H     -2.09946311      0.43434977     -0.65741677
 H      1.12590295      0.56106212      4.23452306
 H      1.03575723     -1.23791313      3.59927540
 H      0.91081615     -0.39498578      1.34749684
 H      1.07976604      2.41688605      2.76830793
 H      0.86525317      1.55254932     -0.14751570
 H      0.95512769      3.26182657      0.52047704
