16
optimized; geo_error=5.7826; pairwise=-1.1574; objective=-0.5792
 C      0.00254496      1.23942657     -1.71857944
 C     -1.23181688      0.77818926     -1.47421775
 C     -1.03028547     -1.80807824      1.23127159
 C      0.20205577     -1.37344606      0.96649195
 C      0.70661903     -0.18638282      1.64705406
 C      1.91182419      0.25681399      1.40227482
 H      0.52019754      1.81318937     -0.95214430
 H      0.48887429      1.05610888     -2.64884218
 H     -1.73523174      0.20445506     -2.25556189
 H     -1.70264103      0.98026872     -0.51739897
 H     -1.61922440     -1.24742324      1.95856142
 H     -1.40248346     -2.68929054      0.72485973
 H      0.82182641     -1.89845892      0.25191740
 H      0.09267784      0.33590438      2.35663457
 H      2.57849328     -0.23885469      0.68765440
 H      2.31378904      1.12820900      1.88639914
