16
random_best; geo_error=99.6140; pairwise=-0.4108; objective=9.5506
 C      2.58441449     -0.55821222      1.42433269
 C      2.06811285     -0.11036021      2.56496708
 C      0.87146142      0.80422398      2.59272443
 C      1.05901355      1.64865343      1.32985918
 C      0.82278622      0.67753053      0.18474257
 C      2.04201521     -0.20748517      0.08476368
 H      3.44711788     -1.21584050      1.44071563
 H      2.54884331     -0.43293539      3.50412220
 H      0.84901100      1.42197226      3.49399934
 H     -0.01553510      0.15123794      2.45570146
 H      0.42965513      2.53898745      1.29751721
 H      2.12307767      1.97766642      1.24376996
 H     -0.07261388      0.06332564      0.49151148
 H      0.60411863      1.21149229     -0.74198101
 H      1.78592413     -1.12602997     -0.48312801
 H      2.80663936      0.35724474     -0.49390354
