16
random_median; geo_error=378.9273; pairwise=-0.0058; objective=37.8870
 C     -2.51106300      1.49155222     -5.43804588
 C     -2.58745349      2.81763809     -5.25982572
 C     -0.02287559     -3.22714162      2.15597438
 C      0.16601062     -3.29244774      3.47420631
 C     -0.98560500     -3.42596274      4.35897927
 C     -0.82295858     -3.49174279      5.65438611
 H     -1.68826611      1.07660642     -6.01719701
 H     -3.23994199      0.83358486     -5.02413195
 H     -3.42037229      3.21532370     -4.67571227
 H     -1.83065404      3.46376125     -5.69317674
 H     -1.04890856     -3.27723730      1.78871379
 H      0.83342384     -3.12803359      1.50141475
 H      1.16662078     -3.24658724      3.88292022
 H     -1.97949645     -3.47162389      3.95486658
 H      0.16923444     -3.44973795      6.11764207
 H     -1.64994893     -3.59027241      6.33384196
