16
optimized; geo_error=5.7826; pairwise=-1.1574; objective=-0.5792
 C      0.28356706      0.78318236     -0.62063645
 C     -0.82707167      0.05348578     -0.66764848
 C     -1.18286432     -0.92644804      0.41971101
 C      0.18442404     -1.44796687      0.86871680
 C      0.83393056     -0.26243232      1.56357232
 C      1.26894955      0.70670952      0.49059027
 H      0.50920763      1.47974440     -1.42119135
 H     -1.49002094      0.18874689     -1.53906776
 H     -1.82321244     -1.73195196      0.05156548
 H     -1.62167417     -0.32419248      1.24230632
 H      0.13310907     -2.35039548      1.47930836
 H      0.82000670     -1.67244205     -0.02209124
 H      0.01910720      0.20121703      2.19141651
 H      1.65493020     -0.58722373      2.20561391
 H      1.42581577      1.70925225      0.94015586
 H      2.24620784      0.34329232      0.10159169
