16
random_median; geo_error=378.9273; pairwise=-0.0058; objective=37.8870
 C      0.59857872      2.95355306      2.65476410
 C      0.25151649      2.85496082      1.37491529
 C     -0.68560586      3.83959166      0.72567481
 C     -1.64439606      4.19827517      1.86371394
 C     -0.79597626      5.00025871      2.83694636
 C      0.10523828      4.02691397      3.55818158
 H      1.27601906      2.22682368      3.09058456
 H      0.67619635      2.01869957      0.79398243
 H     -1.21273467      3.40269437     -0.12618749
 H     -0.07150111      4.73178812      0.48320889
 H     -2.54908281      4.71013465      1.53299591
 H     -1.95354555      3.27397474      2.40959733
 H     -0.17731734      5.69288032      2.19614015
 H     -1.42320116      5.58459529      3.51288050
 H      0.95723233      4.57707988      4.00899393
 H     -0.49402435      3.57860161      4.38178710
