14
random_best; geo_error=157.0407; pairwise=-1.6392; objective=14.0648
 C      2.83299362      0.46090663     -1.27320796
 C      2.30462731     -0.85366683     -1.70291305
 O      1.69452919     -1.54892016     -0.84752210
 O      2.43340686     -1.36970493     -2.97239998
 C      4.79434585     -2.16155584     -5.79630049
 O      5.32241808     -1.26606321     -4.85033249
 H      2.15127998      1.29348859     -1.56006779
 H      2.96340090      0.48708972     -0.19237189
 H      3.81248619      0.69366699     -1.72563960
 H      2.61544397     -2.37797074     -3.04118335
 H      4.04978528     -2.83439763     -5.32748118
 H      5.68457799     -2.74731684     -6.14042146
 H      4.32198971     -1.61140927     -6.64695773
 H      4.63345511     -0.70843589     -4.43199146
