14
random_median; geo_error=487.3524; pairwise=-0.0738; objective=48.6615
 C      0.83507216      3.17157868      4.07460414
 C      1.69446575      2.84162704      5.23412790
 O      1.26497701      3.12842843      6.38329063
 O      2.93064584      2.24305731      5.14440822
 C     -4.17908141     -3.34866293     -2.24824652
 O     -4.57159182     -4.30566709     -3.19992998
 H      0.25709315      2.28651152      3.72415991
 H      0.12713368      3.95757646      4.33331024
 H      1.41359392      3.52716715      3.20446227
 H      3.65221684      2.58195422      5.79167384
 H     -3.65147386     -3.82998525     -1.40158415
 H     -5.14501737     -2.90165296     -1.90011109
 H     -3.52055362     -2.57259717     -2.71026640
 H     -3.81381957     -4.80941189     -3.56414120
