14
random_median; geo_error=487.3524; pairwise=-0.0738; objective=48.6615
 C      2.69568764      5.50937358      0.22239818
 C      2.30169740      5.17253260     -1.17437445
 O      2.47908106      3.98920695     -1.58765310
 O      2.93878022     -0.22152903     -3.67655255
 C      1.38218659      5.81970569     -3.31532712
 O      1.75155772      6.15872005     -1.98770179
 H      2.05027492      4.94102147      0.93924759
 H      2.48908752      6.56645912      0.42608566
 H      3.75211194      5.25332989      0.44487139
 H      2.23862691      5.60160057     -3.97781215
 H      0.93357788      6.77168264     -3.72322302
 H      0.61086334      5.01384651     -3.30608474
 H      2.61601291     -1.13086628     -3.86992548
 H      2.96183822     -0.09806397     -2.69569687
