14
optimized; geo_error=6.7333; pairwise=-5.5686; objective=-4.8952
 C     -1.15270329     -1.47208370      1.20781687
 C     -0.21790731     -0.31591809      1.30321864
 O     -0.26047428      0.41699269      2.33450601
 O     -1.33418351      0.25383298     -1.86504116
 C      1.55759618      1.03662674      0.37250854
 O      0.67463004     -0.06910129      0.26438312
 H     -0.90363303     -2.21960278      2.00319980
 H     -1.00062258     -2.00044176      0.25949665
 H     -2.21437352     -1.17893929      1.34200960
 H      1.05580456      2.01899013      0.31670872
 H      2.18384817      0.97590546     -0.56451352
 H      2.21037457      0.92126234      1.26972949
 H     -0.92078086      0.06869274     -2.73870438
 H     -0.63745287      0.18515851     -1.16668352
