14
optimized; geo_error=6.7333; pairwise=-5.5686; objective=-4.8952
 C     -0.90675293     -1.67122820      1.28326644
 C     -1.15322755     -0.24441442      0.97444044
 O     -1.22848743      0.56059354      1.94066438
 O     -1.30599481      0.26445062     -0.29528201
 C      2.17752851      0.99737386      0.25130114
 O      1.68388342     -0.05642502     -0.53701683
 H      0.16802280     -1.93889465      1.16739336
 H     -1.20421193     -1.89922989      2.30572994
 H     -1.46807330     -2.35252115      0.62066790
 H     -2.01388787      0.99899806     -0.41273872
 H      2.00583808      1.97280710     -0.24461263
 H      3.27502674      0.78777422      0.32622836
 H      1.69880027      0.99885019      1.26135877
 H      0.72412734      0.02473021     -0.71842661
