14
random_best; geo_error=157.0407; pairwise=-1.6392; objective=14.0648
 C      6.16467476     -2.30773353     -3.48993941
 C      6.16599988     -3.43997851     -2.52159883
 O      7.24102349     -3.71957957     -1.91441575
 O      2.36177109     -4.04968581      1.86091304
 C      5.01424788     -5.23495745     -1.38162979
 O      4.99429584     -4.15972754     -2.30760892
 H      6.34842388     -1.34860750     -2.94242841
 H      5.16983477     -2.19719888     -3.93679232
 H      6.94920342     -2.40660453     -4.26828657
 H      5.61222096     -6.10225565     -1.71354591
 H      3.94750782     -5.60353553     -1.37139237
 H      5.29414008     -4.86402641     -0.36747767
 H      1.77312963     -3.31101205      1.58463712
 H      2.34635696     -4.11172963      2.84770893
