43
random_median; geo_error=7749.4575; pairwise=-0.2013; objective=774.7444
 C     14.61425843     -5.21011240     -1.38083479
 C     15.77049772     -6.13581111     -1.04046033
 C     17.00812461     -5.91267109     -1.91291154
 C     17.61381705     -4.50845817     -1.80376938
 C     18.01986328     -4.09963423     -0.38710063
 C     19.05473343     -5.03804610      0.23597350
 N     20.15104503     -5.26000057     -0.57537658
 C     20.21255965     -6.25522204     -1.38013962
 O     20.16544263     -7.16150058     -2.09268626
 O     14.39220264      5.21761919     -1.53878122
 C     14.76778238      3.97839848     -2.11375214
 C     13.64611317      2.95263375     -2.03472550
 C     13.99216272      1.63334619     -2.71975002
 C     12.94296707      0.52992664     -2.54204532
 C     11.54560763      0.87698694     -3.09686726
 C     10.61364395      1.49118631     -2.06198403
 H     14.31423808     -5.31946204     -2.42479415
 H     13.73586574     -5.40912509     -0.76348050
 H     14.88327168     -4.16394423     -1.22957849
 H     15.44366800     -7.18131096     -1.13338995
 H     16.04169496     -6.01810141      0.01688899
 H     17.77482585     -6.65772013     -1.66335281
 H     16.75053445     -6.11888611     -2.96039560
 H     16.91015570     -3.77428226     -2.21508034
 H     18.49870588     -4.44725962     -2.45090849
 H     17.13441745     -4.04043168      0.25900002
 H     18.43315893     -3.08274772     -0.40667896
 H     19.41752776     -4.64047179      1.19260269
 H     18.59965821     -6.00876292      0.46628570
 H     10.47987082      0.82247523     -1.20968803
 H      9.62158816      1.69149168     -2.47283502
 H     10.99921937      2.43193147     -1.66919033
 H     11.65552260      1.54477479     -3.96145931
 H     11.07341652     -0.02868774     -3.50439184
 H     12.85321733      0.27530918     -1.47882221
 H     13.31126857     -0.38874695     -3.02100629
 H     14.15242913      1.81618217     -3.78961561
 H     14.96329024      1.28448166     -2.34463274
 H     13.39320278      2.77811382     -0.98232476
 H     12.74409288      3.38284663     -2.48208577
 H     15.05603284      4.15020164     -3.15896121
 H     15.66041448      3.60057837     -1.59957378
 H     15.16565639      5.83372388     -1.49986971
