43
optimized; geo_error=31.4831; pairwise=-2.2624; objective=0.8860
 C     14.66064671     -0.79394323     12.25275419
 C     14.00974566     -0.58528762     10.89484279
 C     12.92443704     -1.61906375     10.59259717
 C     12.26558380     -1.41247604      9.22938031
 C     11.18116069     -2.44485177      8.92634749
 C     10.52711866     -2.23641268      7.56803549
 N      9.49568213     -3.20992621      7.27478301
 C      8.79385421     -3.17093854      6.08334169
 O      9.02931842     -2.30343606      5.25631616
 O      7.84832894     -4.14293576      5.90590153
 C      7.22202620     -3.97394299      4.65653629
 C      6.15059914     -5.02360916      4.39799581
 C      5.46360206     -4.85315095      3.04536275
 C      4.38815290     -5.90679630      2.78476944
 C      3.69979572     -5.73699795      1.43019038
 C      2.63291086     -6.78961843      1.17568849
 H     13.92556468     -0.72944247     13.05711550
 H     15.12536790     -1.77929440     12.31991190
 H     15.43524217     -0.05105406     12.45607914
 H     14.76962384     -0.61582619     10.10279904
 H     13.57735773      0.42217620     10.83378082
 H     13.35147825     -2.62780237     10.64612073
 H     12.16033800     -1.59152914     11.37883366
 H     13.02943499     -1.43998812      8.44298076
 H     11.83820201     -0.40394044      9.17583672
 H     10.41341666     -2.41778758      9.70837387
 H     11.60530357     -3.45450965      8.97555457
 H     10.07739003     -1.23969578      7.50314007
 H     11.27284561     -2.28286280      6.76701404
 H      2.14695072     -6.65685018      0.20645486
 H      1.85477906     -6.75507865      1.94035285
 H      3.05774361     -7.79494431      1.19426371
 H      3.26131184     -4.73215070      1.37013624
 H      4.45536877     -5.76443976      0.63398653
 H      3.63913364     -5.87402493      3.58516565
 H      4.83057355     -6.90815881      2.85003042
 H      5.02189030     -3.85147748      2.98093360
 H      6.21326747     -4.88580226      2.24564921
 H      6.60014599     -6.02025593      4.46919430
 H      5.40958394     -4.98596038      5.20418764
 H      6.79926149     -2.96153556      4.63484297
 H      8.00542025     -4.00882234      3.88893196
 H      9.31915668     -3.94192849      7.96274737
