43
optimized; geo_error=31.4831; pairwise=-2.2624; objective=0.8860
 C     13.59256429     -0.90212771     10.77796229
 C     12.43761372     -0.52194965      9.86625180
 C     12.38914523     -1.33590497      8.57094857
 C     12.21541828     -2.84497126      8.77861937
 C     10.96619673     -3.23833093      9.56835007
 C      9.66727355     -2.76622542      8.91282785
 N      9.56969044     -3.11337580      7.57888031
 C      9.94717842     -2.32634060      6.64081220
 O     10.33872037     -1.56397099      5.86830266
 O      7.13154776     -4.63208137      6.32468436
 C      7.21063833     -4.25309582      4.96180714
 C      6.19098246     -4.99203136      4.10690569
 C      6.19651303     -4.54436933      2.64776325
 C      5.28104208     -5.36082975      1.72839906
 C      3.78804906     -5.33011511      2.11688340
 C      3.37038808     -6.47766604      3.02543535
 H     14.55206968     -0.78473077     10.27062802
 H     13.62024181     -0.28802783     11.68041526
 H     13.52155099     -1.94219053     11.09880629
 H     12.49969510      0.54796411      9.62139683
 H     11.48724461     -0.63331325     10.40457123
 H     11.57879009     -0.96318863      7.93093646
 H     13.30589865     -1.14957677      7.99567023
 H     13.10844443     -3.25123930      9.26931362
 H     12.17889215     -3.34079726      7.79964799
 H     11.02797892     -2.85079228     10.59351448
 H     10.93124733     -4.33063360      9.67279238
 H      8.79368537     -3.17869796      9.43391760
 H      9.57616792     -1.67607739      8.98836169
 H      3.57576463     -7.44221831      2.55752763
 H      2.30240068     -6.45115235      3.25302138
 H      3.90580647     -6.46556136      3.97471791
 H      3.55586448     -4.36406763      2.58419904
 H      3.16838626     -5.35480418      1.20875575
 H      5.62257005     -6.40289152      1.70021500
 H      5.40050922     -4.99785083      0.69738757
 H      5.91492807     -3.48520605      2.59667764
 H      7.22711647     -4.58073944      2.27087885
 H      6.38102233     -6.06973816      4.17324636
 H      5.19641161     -4.84585669      4.54086044
 H      7.05574520     -3.16868515      4.89019509
 H      8.22499441     -4.45073280      4.59310555
 H      7.87010912     -4.22661013      6.84377009
