43
random_best; geo_error=3039.8546; pairwise=-0.0057; objective=303.9798
 C      0.89627105     -3.42201086     16.00104272
 C      2.30507349     -3.98835194     15.92576877
 C      2.45870223     -5.05292545     14.83902051
 C      3.87374802     -5.62406312     14.75794356
 C      4.02832299     -6.68784928     13.67255533
 C      5.43858852     -7.25467274     13.59450654
 N      5.59366588     -8.26204926     12.56556024
 C      6.81054845     -8.88429167     12.35195753
 O      7.78331449     -8.58626922     13.02788948
 O      6.84286894     -9.82621819     11.36099261
 C      8.13863937    -10.36745897     11.26217667
 C      8.24519697    -11.42175031     10.16960472
 C      9.64543202    -12.01853745     10.05202872
 C      9.75320166    -13.07739713      8.95573032
 C     11.15514978    -13.67581789      8.83746957
 C     11.25530653    -14.73032621      7.74705440
 H      0.60618045     -2.95807735     15.05652368
 H      0.16687500     -4.20624806     16.21162826
 H      0.79866990     -2.66454214     16.78202842
 H      2.59264998     -4.41633217     16.89520853
 H      3.02779987     -3.18129230     15.74690418
 H      1.74328167     -5.86523261     15.01540946
 H      2.17578751     -4.63069921     13.86718843
 H      4.15689889     -6.04636412     15.72961082
 H      4.58921980     -4.81194750     14.58121066
 H      3.74987382     -6.26836753     12.69878445
 H      3.31692577     -7.50331671     13.84763938
 H      6.16587951     -6.45921419     13.39904464
 H      5.73082534     -7.70127840     14.55108517
 H     12.26140564    -15.14880407      7.67063880
 H     10.99809600    -14.31407868      6.77136264
 H     10.56931967    -15.55846754      7.93443639
 H     11.87825010    -12.87059745      8.65216290
 H     11.44919607    -14.10351917      9.80504005
 H      9.45595442    -12.64277510      7.99370866
 H      9.02625456    -13.87678555      9.14347472
 H     10.37160998    -11.21842284      9.86469933
 H      9.94195482    -12.45267595     11.01442369
 H      7.51317239    -12.21378946     10.36268599
 H      7.94270873    -10.97969423      9.21380480
 H      8.82971770     -9.53494127     11.07916183
 H      8.39582264    -10.78541983     12.24365753
 H      4.77152104     -8.51819514     12.01897935
