43
random_median; geo_error=7749.4575; pairwise=-0.2013; objective=774.7444
 C      2.23806940    -20.80173050     11.14772573
 C      2.37658904    -19.56643704     12.02293718
 C      2.29771186    -18.26369330     11.22633348
 C      2.43446427    -17.01878707     12.10190961
 C      2.35590091    -15.71664955     11.30700854
 C      2.49255117    -14.47881934     12.18184132
 N      2.41616262    -13.24001549     11.43543879
 C      2.51939552    -12.01534349     12.07036901
 O      2.67011781    -11.95852186     13.28116596
 O      2.44259964    -10.90984330     11.26896189
 C      2.56255147     -9.74619479     12.05207164
 C      2.47892318     -8.47512833     11.21900827
 C      2.60888156     -7.20478120     12.05564810
 C      2.52551374     -5.92825499     11.22006511
 C      2.65585657     -4.65551244     12.05713659
 C      2.57480402     -3.38916824     11.21998232
 H      1.28211199    -20.80720589     10.62083056
 H      3.02310402    -20.83821126     10.39024130
 H      2.29816193    -21.72549641     11.72761271
 H      3.32636349    -19.59759650     12.57306293
 H      1.59977069    -19.56401822     12.79896465
 H      3.07531978    -18.25721072     10.45298591
 H      1.34949325    -18.22492153     10.67665034
 H      3.38258280    -17.05729006     12.65167191
 H      1.65673209    -17.02494851     12.87505956
 H      1.40754348    -15.67252369     10.75892121
 H      3.13416976    -15.70512110     10.53506797
 H      1.71105528    -14.45815658     12.94914116
 H      3.44510463    -14.48902875     12.72261793
 H      2.66696055     -2.48693429     11.82881691
 H      1.62435977     -3.32941691     10.68661641
 H      3.36707482     -3.36048186     10.46965433
 H      1.87560124     -4.64854187     12.82962971
 H      3.60321065     -4.68208906     12.61157160
 H      1.57788227     -5.91071331     10.66831807
 H      3.30408134     -5.94242555     10.44782578
 H      1.83022373     -7.19173421     12.82774387
 H      3.55655181     -7.22324469     12.60717896
 H      3.25702587     -8.49961846     10.44802007
 H      1.53142846     -8.46849103     10.66884838
 H      1.76974988     -9.77678642     12.81016082
 H      3.51833275     -9.80770619     12.58764396
 H      2.30945693    -13.29741484     10.42271833
