43
random_best; geo_error=3039.8546; pairwise=-0.0057; objective=303.9798
 C      7.27171823     -0.71888786      6.06704701
 C      7.54551813     -1.59631218      7.27734546
 C      7.41104925     -3.09341157      6.98873768
 C      8.37825819     -3.62117321      5.92264022
 C      9.85702857     -3.38486345      6.23305407
 C     10.30650047     -4.03065196      7.54481878
 N      9.96116581     -5.36490962      7.64458024
 C      8.87503573     -5.74723119      8.20675906
 O      7.86377270     -5.99360364      8.70468598
 O      5.96645096     -5.54442391     -3.53764830
 C      5.55070159     -4.22468159     -3.23309562
 C      4.67578199     -3.63732716     -4.33132638
 C      4.14468494     -2.24675475     -3.99402409
 C      3.37421783     -1.56686711     -5.13159097
 C      2.12233909     -2.33330223     -5.60726782
 C      2.38917278     -3.27261770     -6.77485795
 H      6.27102345     -0.89619658      5.66830863
 H      7.34674805      0.34368522      6.30707838
 H      7.98043322     -0.91753589      5.26207716
 H      6.86234843     -1.32037522      8.09322625
 H      8.55009390     -1.38739995      7.66795309
 H      7.55067709     -3.66228337      7.91722968
 H      6.37827467     -3.30854943      6.68346314
 H      8.12727982     -3.17869202      4.95076032
 H      8.21760398     -4.69965492      5.79368295
 H     10.07268135     -2.30876828      6.25492598
 H     10.46885420     -3.78672829      5.41486777
 H     11.39468635     -3.95346770      7.66613871
 H      9.86969844     -3.50116884      8.39996784
 H      2.79501260     -2.72892198     -7.62994113
 H      1.47904466     -3.77254100     -7.11373692
 H      3.11133862     -4.04846782     -6.52090943
 H      1.69172943     -2.88350009     -4.76027376
 H      1.33958703     -1.61867243     -5.90033920
 H      4.04356554     -1.40848308     -5.98611808
 H      3.08621801     -0.55595038     -4.80892357
 H      3.50263320     -2.31370166     -3.10688580
 H      4.98612638     -1.61224094     -3.68600364
 H      5.24610720     -3.60829481     -5.26719735
 H      3.84250355     -4.32186089     -4.52084036
 H      5.00821301     -4.23970537     -2.27886971
 H      6.43688708     -3.59583091     -3.08097205
 H      6.62033380     -5.86807745     -2.86905617
